NAME: renA10
TYPE: TSP
COMMENT: 10-cities problem A (seed: 1, range: 1000)
DIMENSION: 10
EDGE_WEIGHT_TYPE : EUC_2D
NODE_COORD_SECTION
1 985 588
2 847 313
3 254 904
4 434 606
5 978 748
6 569 473
7 317 263
8 562 234
9 592 262
10 596 189
EOF
